ATOMIC_SPECIES
In 114.818 In_pseudopot
Sb 121.760 Sb_pseudopot

NUMERICAL_ORBITAL
In_numerical_orbital
Sb_numerical_orbital

LATTICE_CONSTANT
1.889716

LATTICE_VECTORS
    0.00000     3.31661     3.31661
    3.31661     0.00000     3.31661
    3.31661     3.31661     0.00000

ATOMIC_POSITIONS
Direct

In
0.0
1
  0.0000000   0.0000000   0.0000000 1 1 1

Sb
0.0
1
  0.2500000   0.2500000   0.2500000 1 1 1

