ATOMIC_SPECIES
In 114.818 In_pseudopot
P 30.974 P_pseudopot

NUMERICAL_ORBITAL
In_numerical_orbital
P_numerical_orbital

LATTICE_CONSTANT
1.889716

LATTICE_VECTORS
    0.00000     2.95198     2.95198
    2.95198     0.00000     2.95198
    2.95198     2.95198     0.00000

ATOMIC_POSITIONS
Direct

In
0.0
1
  0.0000000   0.0000000   0.0000000 1 1 1

P
0.0
1
  0.2500000   0.2500000   0.2500000 1 1 1

