&CONTROL
         calculation = scf,
          pseudo_dir = .,
/
&SYSTEM
               ibrav = 0,
                 nat = 2,
                ntyp = 2,
         occupations = smearing,
            smearing = gauss,
             degauss = 0.002,
               nosym = .false.,
             ecutwfc = 100,
           celldm(1) = 1.889716,
	input_dft = functional_to_test,
/
&ELECTRONS
    electron_maxstep = 100,
            conv_thr = 1e-07,
     diagonalization = david,
         mixing_mode = plain,
         mixing_beta = 0.7,
/
CELL_PARAMETERS (alat)
    0.00000     2.95197     2.95197
    2.95197     0.00000     2.95197
    2.95197     2.95197     0.00000

ATOMIC_SPECIES
In 114.818 In_pseudopot
P 30.974 P_pseudopot

ATOMIC_POSITIONS (crystal)
  In   0.0000000   0.0000000   0.0000000
   P   0.2500000   0.2500000   0.2500000

K_POINTS automatic
8 8 8 0 0 0